RobustCbss/GLKH-1.1/TMP/mtspf.pid10398.atsp
NAME : mtspf.pid10398.gtsp
TYPE : ATSP
DIMENSION : 13
EDGE_WEIGHT_TYPE : EXPLICIT
EDGE_WEIGHT_FORMAT : FULL_MATRIX
EDGE_WEIGHT_SECTION
999999 5468708 5468708 5468708 5268710 5468708 5468708 5468708 5468708 5368720 5368721 5368720 5368719 
5368709 999999 0 10737418 10737418 5368716 5368717 5368718 5368717 5468708 5468708 5468708 5468708 
5368709 10737418 999999 0 10737418 5368717 5368718 5368719 5368718 5468708 5468708 5468708 5468708 
5368709 10737418 10737418 999999 0 5368718 5368717 5368718 5368719 5468708 5468708 5468708 5468708 
5368709 0 10737418 10737418 999999 5368717 5368716 5368717 5368718 5468708 5468708 5468708 5468708 
5368709 5368718 5368719 5368718 5368717 999999 0 10737418 10737418 5368721 5368722 5368721 5368720 
5368709 5368717 5368718 5368717 5368716 10737418 999999 0 10737418 5368720 5368721 5368720 5368719 
5368709 5368718 5368717 5368716 5368717 10737418 10737418 999999 0 5368721 5368720 5368719 5368720 
5368709 5368719 5368718 5368717 5368718 0 10737418 10737418 999999 5368722 5368721 5368720 5368721 
5368709 5368713 5368712 5368713 5368714 5368719 5368720 5368721 5368720 999999 0 10737418 10737418 
5368709 5368714 5368713 5368714 5368715 5368720 5368721 5368722 5368721 10737418 999999 0 10737418 
5368709 5368715 5368714 5368715 5368716 5368721 5368720 5368721 5368722 10737418 10737418 999999 0 
5368709 5368714 5368713 5368714 5368715 5368720 5368719 5368720 5368721 0 10737418 10737418 999999 
EOF
